p cnf 15 49
c p weight 6 -1 0
c p weight -6 1 0
c p weight 8 6.12323399573676603586882014729198302312846062338790031898128063403419218957424163818359375E-17 0
c p weight -8 1 0
c p weight 9 1 0
c p weight -9 1 0
c p weight 10 -1 0
c p weight -10 1 0
c p weight 12 -1 0
c p weight -12 1 0
c p weight 15 -1 0
c p weight -15 1 0
-3 0
-1 0
5 3 -4 0
5 -3 4 0
-5 3 4 0
-5 -3 -4 0
-6 3 0
-6 4 0
6 -3 -4 0
7 -3 5 0
-7 3 5 0
-8 5 0
7 -8 -3 0
-7 -8 3 0
7 8 3 -5 0
-7 8 -3 -5 0
-9 5 0
7 -9 3 0
-7 -9 -3 0
7 9 -3 -5 0
-7 9 3 -5 0
-10 7 0
-10 5 0
-10 -3 0
10 -7 3 -5 0
11 7 -5 0
11 -7 5 0
-11 7 5 0
-11 -7 -5 0
-12 7 0
-12 5 0
12 -7 -5 0
13 7 -1 0
13 -7 1 0
-13 7 1 0
-13 -7 -1 0
14 11 -2 0
14 -11 2 0
-14 11 2 0
-14 -11 -2 0
-15 7 0
-15 2 0
-15 1 -11 0
-15 -1 11 0
15 -7 1 11 -2 0
15 -7 -1 -11 -2 0
-13 0
-7 0
-14 0
